\ This file has been generated by DOcplex
\ ENCODING=ISO-8859-1
\Problem name: random_problem.lp

Minimize
 obj: - 458 x0 - 229 x1 + 628 x2 + 314 x3 - 310 x4 - 155 x5 + 90 x6 + 45 x7
      + 364 x8 + 182 x9 + 400 x10 + 200 x11 + 56 x12 + 28 x13 - 24 x14 - 12 x15
      - 44 x16 - 22 x17 - 590 x18 - 295 x19 - 236 x20 - 118 x21 + [ 816 x0^2
      + 816 x0*x1 - 144 x0*x2 - 72 x0*x3 + 128 x0*x4 + 64 x0*x5 + 144 x0*x6
      + 72 x0*x7 - 192 x0*x8 - 96 x0*x9 - 128 x0*x10 - 64 x0*x11 + 336 x0*x12
      + 168 x0*x13 + 256 x0*x14 + 128 x0*x15 + 192 x0*x16 + 96 x0*x17
      + 592 x0*x18 + 296 x0*x19 + 400 x0*x20 + 200 x0*x21 + 204 x1^2 - 72 x1*x2
      - 36 x1*x3 + 64 x1*x4 + 32 x1*x5 + 72 x1*x6 + 36 x1*x7 - 96 x1*x8
      - 48 x1*x9 - 64 x1*x10 - 32 x1*x11 + 168 x1*x12 + 84 x1*x13 + 128 x1*x14
      + 64 x1*x15 + 96 x1*x16 + 48 x1*x17 + 296 x1*x18 + 148 x1*x19 + 200 x1*x20
      + 100 x1*x21 + 2112 x2^2 + 2112 x2*x3 + 416 x2*x4 + 208 x2*x5 - 352 x2*x6
      - 176 x2*x7 - 16 x2*x8 - 8 x2*x9 + 1904 x2*x10 + 952 x2*x11 - 32 x2*x12
      - 16 x2*x13 + 1264 x2*x14 + 632 x2*x15 + 1296 x2*x16 + 648 x2*x17
      + 176 x2*x18 + 88 x2*x19 + 192 x2*x20 + 96 x2*x21 + 528 x3^2 + 208 x3*x4
      + 104 x3*x5 - 176 x3*x6 - 88 x3*x7 - 8 x3*x8 - 4 x3*x9 + 952 x3*x10
      + 476 x3*x11 - 16 x3*x12 - 8 x3*x13 + 632 x3*x14 + 316 x3*x15 + 648 x3*x16
      + 324 x3*x17 + 88 x3*x18 + 44 x3*x19 + 96 x3*x20 + 48 x3*x21 + 664 x4^2
      + 664 x4*x5 + 800 x4*x6 + 400 x4*x7 + 384 x4*x8 + 192 x4*x9 + 528 x4*x10
      + 264 x4*x11 + 528 x4*x12 + 264 x4*x13 + 416 x4*x14 + 208 x4*x15
      + 288 x4*x16 + 144 x4*x17 + 464 x4*x18 + 232 x4*x19 + 352 x4*x20
      + 176 x4*x21 + 166 x5^2 + 400 x5*x6 + 200 x5*x7 + 192 x5*x8 + 96 x5*x9
      + 264 x5*x10 + 132 x5*x11 + 264 x5*x12 + 132 x5*x13 + 208 x5*x14
      + 104 x5*x15 + 144 x5*x16 + 72 x5*x17 + 232 x5*x18 + 116 x5*x19
      + 176 x5*x20 + 88 x5*x21 + 664 x6^2 + 664 x6*x7 + 784 x6*x8 + 392 x6*x9
      + 576 x6*x10 + 288 x6*x11 + 288 x6*x12 + 144 x6*x13 + 560 x6*x16
      + 280 x6*x17 + 432 x6*x18 + 216 x6*x19 + 64 x6*x20 + 32 x6*x21 + 166 x7^2
      + 392 x7*x8 + 196 x7*x9 + 288 x7*x10 + 144 x7*x11 + 144 x7*x12 + 72 x7*x13
      + 280 x7*x16 + 140 x7*x17 + 216 x7*x18 + 108 x7*x19 + 32 x7*x20
      + 16 x7*x21 + 608 x8^2 + 608 x8*x9 + 560 x8*x10 + 280 x8*x11 + 112 x8*x12
      + 56 x8*x13 + 256 x8*x14 + 128 x8*x15 + 160 x8*x16 + 80 x8*x17
      + 144 x8*x18 + 72 x8*x19 + 352 x8*x20 + 176 x8*x21 + 152 x9^2 + 280 x9*x10
      + 140 x9*x11 + 56 x9*x12 + 28 x9*x13 + 128 x9*x14 + 64 x9*x15 + 80 x9*x16
      + 40 x9*x17 + 72 x9*x18 + 36 x9*x19 + 176 x9*x20 + 88 x9*x21 + 2528 x10^2
      + 2528 x10*x11 + 384 x10*x12 + 192 x10*x13 + 2304 x10*x14 + 1152 x10*x15
      + 2416 x10*x16 + 1208 x10*x17 + 752 x10*x18 + 376 x10*x19 + 112 x10*x20
      + 56 x10*x21 + 632 x11^2 + 192 x11*x12 + 96 x11*x13 + 1152 x11*x14
      + 576 x11*x15 + 1208 x11*x16 + 604 x11*x17 + 376 x11*x18 + 188 x11*x19
      + 56 x11*x20 + 28 x11*x21 + 536 x12^2 + 536 x12*x13 + 352 x12*x14
      + 176 x12*x15 + 32 x12*x16 + 16 x12*x17 + 592 x12*x18 + 296 x12*x19
      + 192 x12*x20 + 96 x12*x21 + 134 x13^2 + 176 x13*x14 + 88 x13*x15
      + 16 x13*x16 + 8 x13*x17 + 296 x13*x18 + 148 x13*x19 + 96 x13*x20
      + 48 x13*x21 + 992 x14^2 + 992 x14*x15 + 1136 x14*x16 + 568 x14*x17
      + 368 x14*x18 + 184 x14*x19 + 448 x14*x20 + 224 x14*x21 + 248 x15^2
      + 568 x15*x16 + 284 x15*x17 + 184 x15*x18 + 92 x15*x19 + 224 x15*x20
      + 112 x15*x21 + 1168 x16^2 + 1168 x16*x17 + 400 x16*x18 + 200 x16*x19
      - 128 x16*x20 - 64 x16*x21 + 292 x17^2 + 200 x17*x18 + 100 x17*x19
      - 64 x17*x20 - 32 x17*x21 + 392 x18^2 + 392 x18*x19 + 144 x18*x20
      + 72 x18*x21 + 98 x19^2 + 72 x19*x20 + 36 x19*x21 + 464 x20^2
      + 464 x20*x21 + 116 x21^2 ]/2
Subject To
 c0: 2 x0 + x1 + 2 x2 + x3 + 2 x4 + x5 + 2 x6 + x7 + 2 x8 + x9 + 2 x10 + x11
     + 2 x12 + x13 + 2 x14 + x15 + 2 x16 + x17 + 2 x18 + x19 + 2 x20 + x21 = 3

Bounds
 0 <= x0 <= 1
 0 <= x1 <= 1
 0 <= x2 <= 1
 0 <= x3 <= 1
 0 <= x4 <= 1
 0 <= x5 <= 1
 0 <= x6 <= 1
 0 <= x7 <= 1
 0 <= x8 <= 1
 0 <= x9 <= 1
 0 <= x10 <= 1
 0 <= x11 <= 1
 0 <= x12 <= 1
 0 <= x13 <= 1
 0 <= x14 <= 1
 0 <= x15 <= 1
 0 <= x16 <= 1
 0 <= x17 <= 1
 0 <= x18 <= 1
 0 <= x19 <= 1
 0 <= x20 <= 1
 0 <= x21 <= 1

Binaries
 x0 x1 x2 x3 x4 x5 x6 x7 x8 x9 x10 x11 x12 x13 x14 x15 x16 x17 x18 x19 x20 x21
End
